c turning on binary mode checking
c parsing input formula with 259840 variables and 1039934 clauses
c finished parsing, read 23565232 bytes from proof file
c detected empty clause; start verification via backward checking
c 11857 of 1039934 clauses in core                            
c 13871 of 618393 lemmas in core using 78433 resolution steps
c 0 RAT lemmas in core; 639 redundant literals in core lemmas
s VERIFIED
c verification time: 2.649 seconds
